c colouring generated by benchmark framework
p edge 186 3973
v 1 0
v 2 1
v 3 2
v 4 17
v 5 14
v 6 12
v 7 11
v 8 9
v 9 7
v 10 5
v 11 10
v 12 8
v 13 6
v 14 4
v 15 18
v 16 3
v 17 0
v 18 9
v 19 8
v 20 7
v 21 5
v 22 6
v 23 4
v 24 3
v 25 2
v 26 1
v 27 14
v 28 15
v 29 16
v 30 17
v 31 18
v 32 19
v 33 29
v 34 27
v 35 27
v 36 27
v 37 11
v 38 13
v 39 13
v 40 12
v 41 11
v 42 11
v 43 11
v 44 11
v 45 11
v 46 13
v 47 13
v 48 13
v 49 13
v 50 15
v 51 16
v 52 19
v 53 20
v 54 21
v 55 10
v 56 10
v 57 10
v 58 10
v 59 10
v 60 10
v 61 22
v 62 11
v 63 23
v 64 24
v 65 24
v 66 25
v 67 26
v 68 11
v 69 12
v 70 27
v 71 11
v 72 13
v 73 13
v 74 20
v 75 12
v 76 12
v 77 12
v 78 23
v 79 13
v 80 20
v 81 21
v 82 22
v 83 12
v 84 23
v 85 13
v 86 20
v 87 24
v 88 26
v 89 21
v 90 22
v 91 23
v 92 23
v 93 24
v 94 25
v 95 25
v 96 26
v 97 27
v 98 27
v 99 28
v 100 28
v 101 28
v 102 28
v 103 28
v 104 28
v 105 28
v 106 28
v 107 28
v 108 0
v 109 27
v 110 28
v 111 28
v 112 28
v 113 27
v 114 28
v 115 29
v 116 27
v 117 28
v 118 28
v 119 29
v 120 28
v 121 29
v 122 28
v 123 27
v 124 27
v 125 28
v 126 27
v 127 10
v 128 0
v 129 28
v 130 28
v 131 29
v 132 29
v 133 29
v 134 30
v 135 29
v 136 28
v 137 29
v 138 29
v 139 28
v 140 0
v 141 28
v 142 0
v 143 28
v 144 29
v 145 30
v 146 29
v 147 28
v 148 29
v 149 28
v 150 0
v 151 28
v 152 0
v 153 29
v 154 29
v 155 29
v 156 29
v 157 29
v 158 0
v 159 28
v 160 0
v 161 10
v 162 11
v 163 22
v 164 23
v 165 24
v 166 10
v 167 11
v 168 11
v 169 20
v 170 21
v 171 22
v 172 23
v 173 12
v 174 13
v 175 10
v 176 10
v 177 11
v 178 10
v 179 12
v 180 0
v 181 22
v 182 22
v 183 0
v 184 13
v 185 10
v 186 10
